language ESSENCE' 1.0

letting jobs = 102
letting horizon = 855
letting resourcesRenew = 2
letting resourcesNonrenew = 2
letting resourceLimits = [12, 11, 490, 514]
letting successors = [[2, 3, 4, 7, 10], [9, 8, 5], [14, 13, 11, 6], [34, 24, 23, 22, 18, 17, 11], [31, 20, 19, 16, 12], [34, 31, 29, 24, 23, 22, 21, 20, 18, 17], [34, 27, 22, 18, 14], [35, 34, 31, 29, 26, 24, 23, 21, 15], [24, 22, 18, 11], [23, 18, 11], [43, 35, 31, 29, 27, 25, 21, 20], [30, 29, 27, 26, 25, 23, 22, 21], [35, 31, 29, 21, 16], [31, 30, 29, 28, 25, 24, 23, 19], [30, 28, 27, 25, 19], [44, 43, 42, 34, 33, 32, 28, 25, 24], [50, 44, 43, 42, 36, 33, 30, 25], [50, 44, 43, 42, 36, 32, 26], [50, 44, 43, 42, 41, 40, 39, 36, 33, 32], [45, 44, 42, 40, 36, 32, 30, 28], [42, 41, 40, 39, 36, 33, 32], [50, 49, 48, 45, 43, 41, 40, 38, 36, 35], [50, 44, 42, 39, 33, 32], [50, 47, 41, 39, 38, 37, 36], [59, 49, 48, 46, 45, 41, 40, 38], [49, 41, 40, 39, 33], [59, 49, 47, 45, 38, 37], [59, 57, 50, 49, 41, 37], [54, 50, 48, 40, 39], [61, 49, 39, 37], [49, 48, 44, 36], [49, 38, 37], [60, 59, 54, 48, 47, 45], [60, 59, 58, 54, 45, 41], [61, 58, 46, 39], [62, 61, 59, 58, 54, 51, 46], [58, 56, 54, 52, 48, 46], [74, 61, 58, 57, 54, 53, 51], [60, 59, 57, 53, 52, 51], [62, 55, 53, 47], [68, 62, 61, 55, 53, 52, 51], [71, 68, 65, 62, 61, 56, 55, 53, 52], [71, 60, 57, 56, 55, 54, 53], [61, 60, 58, 55, 54, 52], [68, 65, 61, 57, 56, 52], [71, 65, 60, 55, 53], [63, 61, 58, 51], [69, 68, 62, 55, 53], [80, 79, 73, 70, 67, 64, 58], [79, 75, 74, 71, 69, 62, 61], [71, 70, 65, 56], [79, 76, 75, 74, 73, 70, 69, 63], [79, 70, 67, 66, 64, 63], [73, 70, 69, 66, 64, 63], [84, 79, 76, 75, 74, 73, 67, 63], [80, 79, 75, 72, 69, 67, 64], [79, 69, 67, 62], [81, 76, 71, 69, 68, 65], [72, 67, 65, 64], [84, 80, 79, 72, 68, 67], [89, 88, 84, 80, 70, 67], [70, 64], [89, 88, 81, 80, 78, 72], [101, 89, 88, 84, 83, 81, 77, 76], [84, 66], [82, 78, 77, 75], [101, 82, 81, 78, 77], [92, 85, 82, 75], [101, 89, 85, 84, 83, 82, 78], [96, 72], [101, 100, 89, 87, 86, 85, 83], [101, 92, 83, 82, 77], [100, 98, 92, 91, 88, 86, 83], [92, 86, 77], [101, 88, 87, 86, 83], [98, 96, 85, 82], [100, 98, 97, 94, 90, 85], [99, 97, 92, 91, 90, 87], [100, 98, 97, 94, 93, 86], [100, 99, 97, 94, 91, 90], [99, 98, 97, 93, 86], [100, 97, 94, 91, 90], [99, 97, 94, 93, 90], [92, 91, 87], [99, 91], [96, 90], [98, 94], [95, 94], [91], [95], [93], [94], [102], [102], [102], [102], [102], [102], [102], [102], [102], []]
letting durations = [[0], [5, 7, 8], [2, 7, 8], [1, 2, 3], [2, 3, 5], [2, 6, 7], [2, 4, 8], [3, 7, 9], [6, 9, 10], [2, 2, 10], [6, 9, 10], [3, 6, 7], [4, 7, 9], [1, 8, 10], [2, 3, 5], [5, 5, 7], [3, 4, 9], [4, 9, 10], [4, 10, 10], [7, 8, 10], [5, 7, 10], [1, 7, 8], [5, 6, 10], [5, 6, 7], [4, 5, 8], [3, 6, 9], [4, 7, 7], [3, 6, 8], [1, 6, 10], [2, 5, 10], [3, 7, 9], [4, 5, 5], [3, 5, 9], [2, 5, 10], [1, 7, 10], [9, 10, 10], [2, 6, 8], [4, 7, 8], [1, 7, 10], [8, 8, 9], [9, 9, 10], [2, 3, 5], [4, 5, 7], [1, 1, 4], [1, 2, 10], [5, 9, 10], [2, 9, 9], [3, 4, 8], [5, 8, 10], [3, 8, 10], [6, 6, 7], [1, 2, 3], [1, 8, 10], [2, 6, 8], [9, 9, 10], [2, 4, 10], [8, 9, 10], [1, 7, 10], [3, 7, 10], [7, 9, 10], [6, 7, 10], [5, 7, 9], [2, 4, 5], [4, 5, 6], [5, 6, 10], [7, 9, 10], [4, 6, 9], [9, 9, 10], [2, 7, 10], [4, 6, 10], [5, 6, 7], [6, 7, 10], [6, 7, 7], [7, 8, 10], [1, 8, 10], [1, 3, 10], [2, 4, 5], [1, 3, 10], [1, 5, 7], [4, 7, 9], [5, 5, 6], [6, 6, 10], [1, 1, 10], [2, 3, 6], [4, 4, 6], [7, 9, 10], [1, 8, 9], [1, 2, 8], [6, 7, 9], [5, 9, 10], [4, 6, 9], [1, 1, 7], [4, 7, 8], [3, 6, 10], [2, 5, 7], [2, 3, 10], [2, 3, 9], [8, 9, 10], [5, 6, 7], [4, 7, 9], [3, 7, 10], [0]]
letting resourceUsage = [[[0, 0, 0, 0]], [[2, 0, 3, 6], [0, 5, 3, 7], [0, 5, 3, 6]], [[0, 4, 7, 2], [2, 0, 7, 1], [1, 0, 6, 1]], [[0, 5, 9, 2], [4, 0, 5, 2], [0, 4, 4, 2]], [[4, 0, 7, 9], [0, 3, 5, 8], [3, 0, 3, 8]], [[2, 0, 5, 9], [1, 0, 4, 4], [1, 0, 2, 2]], [[3, 0, 10, 5], [3, 0, 10, 4], [3, 0, 10, 3]], [[0, 3, 5, 10], [3, 0, 5, 7], [0, 1, 2, 6]], [[2, 0, 2, 8], [0, 3, 1, 8], [2, 0, 1, 7]], [[0, 2, 9, 8], [3, 0, 6, 8], [1, 0, 5, 8]], [[0, 3, 10, 5], [0, 3, 7, 4], [0, 3, 1, 4]], [[0, 5, 7, 8], [0, 4, 5, 8], [1, 0, 4, 7]], [[0, 2, 4, 6], [1, 0, 3, 5], [0, 2, 3, 5]], [[0, 3, 8, 7], [0, 3, 5, 7], [0, 2, 4, 6]], [[0, 2, 8, 8], [4, 0, 6, 7], [0, 2, 3, 5]], [[4, 0, 6, 8], [0, 3, 5, 7], [2, 0, 3, 6]], [[4, 0, 1, 10], [0, 2, 1, 8], [0, 2, 1, 5]], [[3, 0, 10, 6], [0, 3, 9, 4], [0, 1, 9, 4]], [[0, 3, 8, 8], [0, 2, 5, 7], [4, 0, 4, 7]], [[0, 1, 4, 5], [1, 0, 4, 5], [0, 1, 2, 5]], [[0, 5, 7, 6], [0, 4, 6, 6], [2, 0, 5, 2]], [[4, 0, 4, 7], [0, 3, 2, 3], [4, 0, 2, 3]], [[4, 0, 9, 8], [0, 2, 8, 7], [3, 0, 7, 7]], [[0, 4, 6, 5], [0, 3, 4, 3], [0, 3, 4, 2]], [[2, 0, 9, 2], [0, 3, 9, 2], [2, 0, 8, 2]], [[0, 4, 9, 5], [0, 4, 8, 5], [0, 3, 7, 5]], [[5, 0, 6, 5], [0, 2, 6, 4], [2, 0, 4, 3]], [[0, 3, 6, 9], [0, 3, 6, 7], [2, 0, 5, 7]], [[0, 5, 9, 5], [0, 3, 8, 3], [3, 0, 8, 3]], [[4, 0, 6, 4], [0, 3, 5, 3], [4, 0, 3, 2]], [[0, 3, 7, 1], [0, 3, 6, 1], [0, 3, 5, 1]], [[0, 4, 6, 5], [0, 4, 5, 5], [4, 0, 4, 5]], [[0, 4, 6, 6], [0, 3, 5, 5], [0, 2, 5, 5]], [[0, 4, 7, 9], [0, 3, 3, 6], [1, 0, 2, 5]], [[0, 3, 6, 4], [0, 3, 5, 4], [0, 3, 4, 4]], [[4, 0, 2, 9], [0, 4, 2, 9], [1, 0, 2, 9]], [[0, 4, 4, 9], [0, 3, 4, 9], [0, 2, 4, 9]], [[1, 0, 8, 5], [1, 0, 8, 3], [1, 0, 7, 3]], [[4, 0, 2, 3], [3, 0, 1, 2], [1, 0, 1, 2]], [[3, 0, 5, 8], [0, 4, 4, 6], [0, 4, 2, 5]], [[4, 0, 6, 9], [0, 3, 5, 7], [0, 3, 3, 4]], [[3, 0, 9, 9], [0, 4, 7, 9], [3, 0, 6, 8]], [[5, 0, 5, 10], [5, 0, 4, 8], [5, 0, 4, 6]], [[0, 4, 10, 3], [3, 0, 8, 2], [3, 0, 8, 1]], [[0, 5, 8, 8], [2, 0, 7, 6], [2, 0, 7, 5]], [[5, 0, 9, 5], [0, 4, 4, 3], [5, 0, 1, 3]], [[1, 0, 9, 6], [1, 0, 8, 5], [0, 5, 7, 5]], [[5, 0, 8, 6], [3, 0, 6, 4], [2, 0, 3, 4]], [[0, 5, 2, 2], [0, 4, 2, 1], [4, 0, 2, 1]], [[3, 0, 7, 9], [0, 3, 3, 6], [3, 0, 2, 5]], [[0, 2, 9, 8], [3, 0, 8, 7], [3, 0, 7, 5]], [[3, 0, 7, 5], [3, 0, 6, 5], [0, 2, 5, 3]], [[1, 0, 8, 5], [1, 0, 5, 4], [0, 2, 3, 4]], [[0, 4, 7, 10], [0, 4, 7, 7], [1, 0, 4, 6]], [[0, 4, 3, 9], [4, 0, 2, 9], [0, 3, 1, 9]], [[0, 4, 9, 2], [2, 0, 3, 2], [0, 4, 1, 2]], [[5, 0, 5, 6], [0, 1, 5, 4], [0, 1, 5, 3]], [[4, 0, 4, 7], [3, 0, 4, 3], [1, 0, 3, 3]], [[0, 1, 7, 8], [2, 0, 7, 8], [2, 0, 6, 5]], [[3, 0, 8, 8], [0, 2, 8, 5], [0, 2, 6, 2]], [[2, 0, 10, 7], [0, 2, 7, 6], [2, 0, 5, 5]], [[1, 0, 8, 7], [1, 0, 5, 6], [0, 4, 3, 6]], [[3, 0, 5, 5], [3, 0, 3, 3], [0, 2, 3, 3]], [[3, 0, 6, 10], [2, 0, 5, 9], [0, 2, 3, 9]], [[4, 0, 4, 7], [3, 0, 3, 6], [2, 0, 3, 5]], [[0, 3, 9, 7], [1, 0, 6, 6], [0, 3, 4, 4]], [[3, 0, 7, 7], [3, 0, 7, 6], [0, 1, 7, 6]], [[0, 2, 6, 2], [3, 0, 3, 1], [2, 0, 3, 1]], [[3, 0, 8, 6], [2, 0, 8, 6], [0, 2, 8, 3]], [[5, 0, 5, 8], [4, 0, 5, 5], [0, 2, 5, 1]], [[0, 2, 5, 8], [4, 0, 5, 8], [3, 0, 2, 8]], [[3, 0, 6, 5], [2, 0, 5, 5], [0, 1, 5, 4]], [[0, 3, 9, 4], [0, 3, 9, 3], [0, 2, 8, 4]], [[0, 2, 8, 10], [0, 2, 8, 9], [2, 0, 6, 9]], [[4, 0, 7, 5], [3, 0, 7, 5], [3, 0, 7, 4]], [[2, 0, 7, 9], [0, 3, 5, 6], [0, 1, 5, 4]], [[0, 3, 3, 10], [0, 2, 3, 9], [0, 2, 2, 7]], [[0, 5, 6, 5], [0, 4, 6, 4], [0, 4, 6, 3]], [[5, 0, 9, 9], [0, 1, 5, 6], [5, 0, 4, 6]], [[0, 5, 9, 7], [4, 0, 7, 6], [0, 4, 6, 5]], [[5, 0, 6, 6], [0, 1, 5, 5], [4, 0, 5, 5]], [[3, 0, 10, 3], [0, 4, 9, 3], [0, 4, 7, 3]], [[0, 3, 6, 10], [3, 0, 6, 9], [3, 0, 6, 8]], [[3, 0, 9, 7], [3, 0, 7, 5], [0, 2, 7, 5]], [[3, 0, 6, 8], [0, 2, 5, 7], [0, 1, 4, 5]], [[0, 5, 3, 9], [0, 2, 3, 9], [0, 2, 2, 9]], [[2, 0, 8, 8], [2, 0, 7, 7], [0, 2, 5, 7]], [[0, 3, 3, 10], [0, 3, 2, 7], [3, 0, 1, 6]], [[0, 1, 7, 6], [3, 0, 6, 4], [3, 0, 4, 2]], [[3, 0, 7, 6], [0, 3, 6, 5], [0, 2, 3, 5]], [[0, 2, 3, 10], [2, 0, 3, 6], [0, 2, 3, 4]], [[0, 4, 9, 2], [2, 0, 8, 1], [0, 3, 7, 1]], [[1, 0, 7, 5], [1, 0, 7, 2], [0, 1, 4, 2]], [[3, 0, 5, 8], [0, 2, 5, 6], [0, 2, 5, 4]], [[0, 1, 5, 10], [0, 1, 5, 8], [0, 1, 3, 6]], [[0, 4, 7, 9], [2, 0, 5, 9], [0, 3, 5, 8]], [[4, 0, 4, 5], [3, 0, 2, 4], [2, 0, 2, 3]], [[3, 0, 10, 8], [3, 0, 9, 7], [0, 1, 9, 5]], [[4, 0, 10, 9], [0, 2, 9, 6], [4, 0, 9, 4]], [[2, 0, 4, 6], [2, 0, 2, 5], [0, 4, 2, 4]], [[0, 5, 8, 3], [2, 0, 4, 3], [0, 3, 2, 1]], [[0, 0, 0, 0]]]
